c *********************************
c * Circuit generated by BenCGen
c *
c * RippleCarryAdder_57_57_57_InOutT
c *
c * Ports with 1 gate(s): 1
c * Ports with 2 gate(s): 286
c * Total gates: 287
c *********************************
p cnf 401 974
1 174 0
-1 -174 0
1 -173 0
174 -173 0
-1 -174 173 0
1 58 -176 0
-1 58 176 0
1 -58 176 0
-1 -58 -176 0
176 173 -115 0
-176 173 115 0
176 -173 115 0
-176 -173 -115 0
173 -177 0
176 -177 0
-173 -176 177 0
58 -178 0
1 -178 0
-58 -1 178 0
-177 175 0
-178 175 0
177 178 -175 0
2 59 -180 0
-2 59 180 0
2 -59 180 0
-2 -59 -180 0
180 175 -116 0
-180 175 116 0
180 -175 116 0
-180 -175 -116 0
175 -181 0
180 -181 0
-175 -180 181 0
59 -182 0
2 -182 0
-59 -2 182 0
-181 179 0
-182 179 0
181 182 -179 0
3 60 -184 0
-3 60 184 0
3 -60 184 0
-3 -60 -184 0
184 179 -117 0
-184 179 117 0
184 -179 117 0
-184 -179 -117 0
179 -185 0
184 -185 0
-179 -184 185 0
60 -186 0
3 -186 0
-60 -3 186 0
-185 183 0
-186 183 0
185 186 -183 0
4 61 -188 0
-4 61 188 0
4 -61 188 0
-4 -61 -188 0
188 183 -118 0
-188 183 118 0
188 -183 118 0
-188 -183 -118 0
183 -189 0
188 -189 0
-183 -188 189 0
61 -190 0
4 -190 0
-61 -4 190 0
-189 187 0
-190 187 0
189 190 -187 0
5 62 -192 0
-5 62 192 0
5 -62 192 0
-5 -62 -192 0
192 187 -119 0
-192 187 119 0
192 -187 119 0
-192 -187 -119 0
187 -193 0
192 -193 0
-187 -192 193 0
62 -194 0
5 -194 0
-62 -5 194 0
-193 191 0
-194 191 0
193 194 -191 0
6 63 -196 0
-6 63 196 0
6 -63 196 0
-6 -63 -196 0
196 191 -120 0
-196 191 120 0
196 -191 120 0
-196 -191 -120 0
191 -197 0
196 -197 0
-191 -196 197 0
63 -198 0
6 -198 0
-63 -6 198 0
-197 195 0
-198 195 0
197 198 -195 0
7 64 -200 0
-7 64 200 0
7 -64 200 0
-7 -64 -200 0
200 195 -121 0
-200 195 121 0
200 -195 121 0
-200 -195 -121 0
195 -201 0
200 -201 0
-195 -200 201 0
64 -202 0
7 -202 0
-64 -7 202 0
-201 199 0
-202 199 0
201 202 -199 0
8 65 -204 0
-8 65 204 0
8 -65 204 0
-8 -65 -204 0
204 199 -122 0
-204 199 122 0
204 -199 122 0
-204 -199 -122 0
199 -205 0
204 -205 0
-199 -204 205 0
65 -206 0
8 -206 0
-65 -8 206 0
-205 203 0
-206 203 0
205 206 -203 0
9 66 -208 0
-9 66 208 0
9 -66 208 0
-9 -66 -208 0
208 203 -123 0
-208 203 123 0
208 -203 123 0
-208 -203 -123 0
203 -209 0
208 -209 0
-203 -208 209 0
66 -210 0
9 -210 0
-66 -9 210 0
-209 207 0
-210 207 0
209 210 -207 0
10 67 -212 0
-10 67 212 0
10 -67 212 0
-10 -67 -212 0
212 207 -124 0
-212 207 124 0
212 -207 124 0
-212 -207 -124 0
207 -213 0
212 -213 0
-207 -212 213 0
67 -214 0
10 -214 0
-67 -10 214 0
-213 211 0
-214 211 0
213 214 -211 0
11 68 -216 0
-11 68 216 0
11 -68 216 0
-11 -68 -216 0
216 211 -125 0
-216 211 125 0
216 -211 125 0
-216 -211 -125 0
211 -217 0
216 -217 0
-211 -216 217 0
68 -218 0
11 -218 0
-68 -11 218 0
-217 215 0
-218 215 0
217 218 -215 0
12 69 -220 0
-12 69 220 0
12 -69 220 0
-12 -69 -220 0
220 215 -126 0
-220 215 126 0
220 -215 126 0
-220 -215 -126 0
215 -221 0
220 -221 0
-215 -220 221 0
69 -222 0
12 -222 0
-69 -12 222 0
-221 219 0
-222 219 0
221 222 -219 0
13 70 -224 0
-13 70 224 0
13 -70 224 0
-13 -70 -224 0
224 219 -127 0
-224 219 127 0
224 -219 127 0
-224 -219 -127 0
219 -225 0
224 -225 0
-219 -224 225 0
70 -226 0
13 -226 0
-70 -13 226 0
-225 223 0
-226 223 0
225 226 -223 0
14 71 -228 0
-14 71 228 0
14 -71 228 0
-14 -71 -228 0
228 223 -128 0
-228 223 128 0
228 -223 128 0
-228 -223 -128 0
223 -229 0
228 -229 0
-223 -228 229 0
71 -230 0
14 -230 0
-71 -14 230 0
-229 227 0
-230 227 0
229 230 -227 0
15 72 -232 0
-15 72 232 0
15 -72 232 0
-15 -72 -232 0
232 227 -129 0
-232 227 129 0
232 -227 129 0
-232 -227 -129 0
227 -233 0
232 -233 0
-227 -232 233 0
72 -234 0
15 -234 0
-72 -15 234 0
-233 231 0
-234 231 0
233 234 -231 0
16 73 -236 0
-16 73 236 0
16 -73 236 0
-16 -73 -236 0
236 231 -130 0
-236 231 130 0
236 -231 130 0
-236 -231 -130 0
231 -237 0
236 -237 0
-231 -236 237 0
73 -238 0
16 -238 0
-73 -16 238 0
-237 235 0
-238 235 0
237 238 -235 0
17 74 -240 0
-17 74 240 0
17 -74 240 0
-17 -74 -240 0
240 235 -131 0
-240 235 131 0
240 -235 131 0
-240 -235 -131 0
235 -241 0
240 -241 0
-235 -240 241 0
74 -242 0
17 -242 0
-74 -17 242 0
-241 239 0
-242 239 0
241 242 -239 0
18 75 -244 0
-18 75 244 0
18 -75 244 0
-18 -75 -244 0
244 239 -132 0
-244 239 132 0
244 -239 132 0
-244 -239 -132 0
239 -245 0
244 -245 0
-239 -244 245 0
75 -246 0
18 -246 0
-75 -18 246 0
-245 243 0
-246 243 0
245 246 -243 0
19 76 -248 0
-19 76 248 0
19 -76 248 0
-19 -76 -248 0
248 243 -133 0
-248 243 133 0
248 -243 133 0
-248 -243 -133 0
243 -249 0
248 -249 0
-243 -248 249 0
76 -250 0
19 -250 0
-76 -19 250 0
-249 247 0
-250 247 0
249 250 -247 0
20 77 -252 0
-20 77 252 0
20 -77 252 0
-20 -77 -252 0
252 247 -134 0
-252 247 134 0
252 -247 134 0
-252 -247 -134 0
247 -253 0
252 -253 0
-247 -252 253 0
77 -254 0
20 -254 0
-77 -20 254 0
-253 251 0
-254 251 0
253 254 -251 0
21 78 -256 0
-21 78 256 0
21 -78 256 0
-21 -78 -256 0
256 251 -135 0
-256 251 135 0
256 -251 135 0
-256 -251 -135 0
251 -257 0
256 -257 0
-251 -256 257 0
78 -258 0
21 -258 0
-78 -21 258 0
-257 255 0
-258 255 0
257 258 -255 0
22 79 -260 0
-22 79 260 0
22 -79 260 0
-22 -79 -260 0
260 255 -136 0
-260 255 136 0
260 -255 136 0
-260 -255 -136 0
255 -261 0
260 -261 0
-255 -260 261 0
79 -262 0
22 -262 0
-79 -22 262 0
-261 259 0
-262 259 0
261 262 -259 0
23 80 -264 0
-23 80 264 0
23 -80 264 0
-23 -80 -264 0
264 259 -137 0
-264 259 137 0
264 -259 137 0
-264 -259 -137 0
259 -265 0
264 -265 0
-259 -264 265 0
80 -266 0
23 -266 0
-80 -23 266 0
-265 263 0
-266 263 0
265 266 -263 0
24 81 -268 0
-24 81 268 0
24 -81 268 0
-24 -81 -268 0
268 263 -138 0
-268 263 138 0
268 -263 138 0
-268 -263 -138 0
263 -269 0
268 -269 0
-263 -268 269 0
81 -270 0
24 -270 0
-81 -24 270 0
-269 267 0
-270 267 0
269 270 -267 0
25 82 -272 0
-25 82 272 0
25 -82 272 0
-25 -82 -272 0
272 267 -139 0
-272 267 139 0
272 -267 139 0
-272 -267 -139 0
267 -273 0
272 -273 0
-267 -272 273 0
82 -274 0
25 -274 0
-82 -25 274 0
-273 271 0
-274 271 0
273 274 -271 0
26 83 -276 0
-26 83 276 0
26 -83 276 0
-26 -83 -276 0
276 271 -140 0
-276 271 140 0
276 -271 140 0
-276 -271 -140 0
271 -277 0
276 -277 0
-271 -276 277 0
83 -278 0
26 -278 0
-83 -26 278 0
-277 275 0
-278 275 0
277 278 -275 0
27 84 -280 0
-27 84 280 0
27 -84 280 0
-27 -84 -280 0
280 275 -141 0
-280 275 141 0
280 -275 141 0
-280 -275 -141 0
275 -281 0
280 -281 0
-275 -280 281 0
84 -282 0
27 -282 0
-84 -27 282 0
-281 279 0
-282 279 0
281 282 -279 0
28 85 -284 0
-28 85 284 0
28 -85 284 0
-28 -85 -284 0
284 279 -142 0
-284 279 142 0
284 -279 142 0
-284 -279 -142 0
279 -285 0
284 -285 0
-279 -284 285 0
85 -286 0
28 -286 0
-85 -28 286 0
-285 283 0
-286 283 0
285 286 -283 0
29 86 -288 0
-29 86 288 0
29 -86 288 0
-29 -86 -288 0
288 283 -143 0
-288 283 143 0
288 -283 143 0
-288 -283 -143 0
283 -289 0
288 -289 0
-283 -288 289 0
86 -290 0
29 -290 0
-86 -29 290 0
-289 287 0
-290 287 0
289 290 -287 0
30 87 -292 0
-30 87 292 0
30 -87 292 0
-30 -87 -292 0
292 287 -144 0
-292 287 144 0
292 -287 144 0
-292 -287 -144 0
287 -293 0
292 -293 0
-287 -292 293 0
87 -294 0
30 -294 0
-87 -30 294 0
-293 291 0
-294 291 0
293 294 -291 0
31 88 -296 0
-31 88 296 0
31 -88 296 0
-31 -88 -296 0
296 291 -145 0
-296 291 145 0
296 -291 145 0
-296 -291 -145 0
291 -297 0
296 -297 0
-291 -296 297 0
88 -298 0
31 -298 0
-88 -31 298 0
-297 295 0
-298 295 0
297 298 -295 0
32 89 -300 0
-32 89 300 0
32 -89 300 0
-32 -89 -300 0
300 295 -146 0
-300 295 146 0
300 -295 146 0
-300 -295 -146 0
295 -301 0
300 -301 0
-295 -300 301 0
89 -302 0
32 -302 0
-89 -32 302 0
-301 299 0
-302 299 0
301 302 -299 0
33 90 -304 0
-33 90 304 0
33 -90 304 0
-33 -90 -304 0
304 299 -147 0
-304 299 147 0
304 -299 147 0
-304 -299 -147 0
299 -305 0
304 -305 0
-299 -304 305 0
90 -306 0
33 -306 0
-90 -33 306 0
-305 303 0
-306 303 0
305 306 -303 0
34 91 -308 0
-34 91 308 0
34 -91 308 0
-34 -91 -308 0
308 303 -148 0
-308 303 148 0
308 -303 148 0
-308 -303 -148 0
303 -309 0
308 -309 0
-303 -308 309 0
91 -310 0
34 -310 0
-91 -34 310 0
-309 307 0
-310 307 0
309 310 -307 0
35 92 -312 0
-35 92 312 0
35 -92 312 0
-35 -92 -312 0
312 307 -149 0
-312 307 149 0
312 -307 149 0
-312 -307 -149 0
307 -313 0
312 -313 0
-307 -312 313 0
92 -314 0
35 -314 0
-92 -35 314 0
-313 311 0
-314 311 0
313 314 -311 0
36 93 -316 0
-36 93 316 0
36 -93 316 0
-36 -93 -316 0
316 311 -150 0
-316 311 150 0
316 -311 150 0
-316 -311 -150 0
311 -317 0
316 -317 0
-311 -316 317 0
93 -318 0
36 -318 0
-93 -36 318 0
-317 315 0
-318 315 0
317 318 -315 0
37 94 -320 0
-37 94 320 0
37 -94 320 0
-37 -94 -320 0
320 315 -151 0
-320 315 151 0
320 -315 151 0
-320 -315 -151 0
315 -321 0
320 -321 0
-315 -320 321 0
94 -322 0
37 -322 0
-94 -37 322 0
-321 319 0
-322 319 0
321 322 -319 0
38 95 -324 0
-38 95 324 0
38 -95 324 0
-38 -95 -324 0
324 319 -152 0
-324 319 152 0
324 -319 152 0
-324 -319 -152 0
319 -325 0
324 -325 0
-319 -324 325 0
95 -326 0
38 -326 0
-95 -38 326 0
-325 323 0
-326 323 0
325 326 -323 0
39 96 -328 0
-39 96 328 0
39 -96 328 0
-39 -96 -328 0
328 323 -153 0
-328 323 153 0
328 -323 153 0
-328 -323 -153 0
323 -329 0
328 -329 0
-323 -328 329 0
96 -330 0
39 -330 0
-96 -39 330 0
-329 327 0
-330 327 0
329 330 -327 0
40 97 -332 0
-40 97 332 0
40 -97 332 0
-40 -97 -332 0
332 327 -154 0
-332 327 154 0
332 -327 154 0
-332 -327 -154 0
327 -333 0
332 -333 0
-327 -332 333 0
97 -334 0
40 -334 0
-97 -40 334 0
-333 331 0
-334 331 0
333 334 -331 0
41 98 -336 0
-41 98 336 0
41 -98 336 0
-41 -98 -336 0
336 331 -155 0
-336 331 155 0
336 -331 155 0
-336 -331 -155 0
331 -337 0
336 -337 0
-331 -336 337 0
98 -338 0
41 -338 0
-98 -41 338 0
-337 335 0
-338 335 0
337 338 -335 0
42 99 -340 0
-42 99 340 0
42 -99 340 0
-42 -99 -340 0
340 335 -156 0
-340 335 156 0
340 -335 156 0
-340 -335 -156 0
335 -341 0
340 -341 0
-335 -340 341 0
99 -342 0
42 -342 0
-99 -42 342 0
-341 339 0
-342 339 0
341 342 -339 0
43 100 -344 0
-43 100 344 0
43 -100 344 0
-43 -100 -344 0
344 339 -157 0
-344 339 157 0
344 -339 157 0
-344 -339 -157 0
339 -345 0
344 -345 0
-339 -344 345 0
100 -346 0
43 -346 0
-100 -43 346 0
-345 343 0
-346 343 0
345 346 -343 0
44 101 -348 0
-44 101 348 0
44 -101 348 0
-44 -101 -348 0
348 343 -158 0
-348 343 158 0
348 -343 158 0
-348 -343 -158 0
343 -349 0
348 -349 0
-343 -348 349 0
101 -350 0
44 -350 0
-101 -44 350 0
-349 347 0
-350 347 0
349 350 -347 0
45 102 -352 0
-45 102 352 0
45 -102 352 0
-45 -102 -352 0
352 347 -159 0
-352 347 159 0
352 -347 159 0
-352 -347 -159 0
347 -353 0
352 -353 0
-347 -352 353 0
102 -354 0
45 -354 0
-102 -45 354 0
-353 351 0
-354 351 0
353 354 -351 0
46 103 -356 0
-46 103 356 0
46 -103 356 0
-46 -103 -356 0
356 351 -160 0
-356 351 160 0
356 -351 160 0
-356 -351 -160 0
351 -357 0
356 -357 0
-351 -356 357 0
103 -358 0
46 -358 0
-103 -46 358 0
-357 355 0
-358 355 0
357 358 -355 0
47 104 -360 0
-47 104 360 0
47 -104 360 0
-47 -104 -360 0
360 355 -161 0
-360 355 161 0
360 -355 161 0
-360 -355 -161 0
355 -361 0
360 -361 0
-355 -360 361 0
104 -362 0
47 -362 0
-104 -47 362 0
-361 359 0
-362 359 0
361 362 -359 0
48 105 -364 0
-48 105 364 0
48 -105 364 0
-48 -105 -364 0
364 359 -162 0
-364 359 162 0
364 -359 162 0
-364 -359 -162 0
359 -365 0
364 -365 0
-359 -364 365 0
105 -366 0
48 -366 0
-105 -48 366 0
-365 363 0
-366 363 0
365 366 -363 0
49 106 -368 0
-49 106 368 0
49 -106 368 0
-49 -106 -368 0
368 363 -163 0
-368 363 163 0
368 -363 163 0
-368 -363 -163 0
363 -369 0
368 -369 0
-363 -368 369 0
106 -370 0
49 -370 0
-106 -49 370 0
-369 367 0
-370 367 0
369 370 -367 0
50 107 -372 0
-50 107 372 0
50 -107 372 0
-50 -107 -372 0
372 367 -164 0
-372 367 164 0
372 -367 164 0
-372 -367 -164 0
367 -373 0
372 -373 0
-367 -372 373 0
107 -374 0
50 -374 0
-107 -50 374 0
-373 371 0
-374 371 0
373 374 -371 0
51 108 -376 0
-51 108 376 0
51 -108 376 0
-51 -108 -376 0
376 371 -165 0
-376 371 165 0
376 -371 165 0
-376 -371 -165 0
371 -377 0
376 -377 0
-371 -376 377 0
108 -378 0
51 -378 0
-108 -51 378 0
-377 375 0
-378 375 0
377 378 -375 0
52 109 -380 0
-52 109 380 0
52 -109 380 0
-52 -109 -380 0
380 375 -166 0
-380 375 166 0
380 -375 166 0
-380 -375 -166 0
375 -381 0
380 -381 0
-375 -380 381 0
109 -382 0
52 -382 0
-109 -52 382 0
-381 379 0
-382 379 0
381 382 -379 0
53 110 -384 0
-53 110 384 0
53 -110 384 0
-53 -110 -384 0
384 379 -167 0
-384 379 167 0
384 -379 167 0
-384 -379 -167 0
379 -385 0
384 -385 0
-379 -384 385 0
110 -386 0
53 -386 0
-110 -53 386 0
-385 383 0
-386 383 0
385 386 -383 0
54 111 -388 0
-54 111 388 0
54 -111 388 0
-54 -111 -388 0
388 383 -168 0
-388 383 168 0
388 -383 168 0
-388 -383 -168 0
383 -389 0
388 -389 0
-383 -388 389 0
111 -390 0
54 -390 0
-111 -54 390 0
-389 387 0
-390 387 0
389 390 -387 0
55 112 -392 0
-55 112 392 0
55 -112 392 0
-55 -112 -392 0
392 387 -169 0
-392 387 169 0
392 -387 169 0
-392 -387 -169 0
387 -393 0
392 -393 0
-387 -392 393 0
112 -394 0
55 -394 0
-112 -55 394 0
-393 391 0
-394 391 0
393 394 -391 0
56 113 -396 0
-56 113 396 0
56 -113 396 0
-56 -113 -396 0
396 391 -170 0
-396 391 170 0
396 -391 170 0
-396 -391 -170 0
391 -397 0
396 -397 0
-391 -396 397 0
113 -398 0
56 -398 0
-113 -56 398 0
-397 395 0
-398 395 0
397 398 -395 0
57 114 -399 0
-57 114 399 0
57 -114 399 0
-57 -114 -399 0
399 395 -171 0
-399 395 171 0
399 -395 171 0
-399 -395 -171 0
395 -400 0
399 -400 0
-395 -399 400 0
114 -401 0
57 -401 0
-114 -57 401 0
-400 172 0
-401 172 0
400 401 -172 0
